NAME: random problem
TYPE: MTSP
COMMENT: MTSP problem for MRS UAV summer school
DIMENSION: 20
NUMBER_OF_ROBOTS: 2
START_TARGET_INDEXES: 1, 2
NEIGHBORHOOD_RADIUS: 2
EDGE_WEIGHT_TYPE: EUC_2D
NODE_COORD_SECTION
1 15.0 -21.0
2 -5.0 -25.0
3 7.9 10.0
4 20.8 -13.0
5 -3.7 -22.3
6 -29.9 1.4
7 18.2 1.3
8 10.2 -7.5
9 1.3 12.1
10 28.3 18.6
11 -17.7 -8.4
12 -23.0 -9.4
13 8.8 -20.1
14 -17.6 -5.5
15 37.6 -6.9
16 -32.3 -27.3
17 -11.8 -25.1
18 0.1 -15.6
19 -13.1 2.5
20 -8.2 -4.1
EOF
